(define-fun inv2 ((x!0 Int) (x!1 Int) (x!2 Int)) Bool
  (let ((a!1 (not (>= (+ (* 2 x!1) (* (- 1) x!2)) 0)))
        (a!2 (not (>= (mod (* 2 x!0) 16) 1)))
        (a!3 (not (>= (+ x!1 (* (- 1) x!2)) 0)))
        (a!5 (not (>= (+ (* 4 x!0) (* (- 1) x!2)) 1)))
        (a!6 (not (>= (+ (* 2 x!0) (* (- 1) x!2)) 1)))
        (a!8 (not (>= (+ (* 8 x!1) (* (- 1) x!2)) 0)))
        (a!9 (not (>= (mod (* 8 x!0) 16) 1)))
        (a!10 (not (>= (+ (* 4 x!1) (* (- 1) x!2)) 0)))
        (a!11 (not (>= (mod (* 4 x!0) 16) 1)))
        (a!12 (not (<= (+ (* 2 x!1) (* (- 1) x!2)) (- 1))))
        (a!13 (not (>= (+ (* 8 x!0) (* (- 1) x!2)) 1)))
        (a!14 (<= (+ (* 2 x!1) (* (- 1) (mod x!0 16))) 0)))
  (let ((a!4 (or (not (>= (mod x!0 16) 1)) a!3))
        (a!7 (or (not (>= (mod x!0 16) 1)) a!6)))
    (and (or (not (>= x!1 1)) (not (>= x!0 9)) (not (<= x!1 15)))
         (not (<= x!1 (- 1)))
         (not (<= x!2 15))
         (or a!1 a!2)
         a!4
         (or a!5 a!2)
         a!7
         (or a!8 a!9)
         (or a!10 a!11)
         (or a!12 a!13 a!11)
         (or (not (>= x!0 17)) (not (>= x!1 1)) a!6)
         (or (not (>= x!0 5)) (not (>= x!1 1)) a!12)
         (or (not (= x!1 1)) (not (>= x!0 2)))
         (or (not (>= x!1 1)) (not (>= x!0 3)) (not (<= x!1 3)))
         (or (not (>= x!1 1)) a!5 (not a!14))
         (not (>= x!2 17))))))

